
--- Job Untitled_2.gms Start 04/27/21 19:35:17 34.3.0 rac355f3 WEX-WEI x86 64bit/MS Windows
--- Applying:
    C:\GAMS\34\gmsprmNT.txt
--- GAMS Parameters defined
    Input "D:\OneDrive - Universidad de Pamplona\Optimización de Procesos\Programas GAMS\Untitled_2.gms"
    PageWidth 80
    PageSize 0
    PageContr 3
    Action CE
    ScrDir "D:\OneDrive - Universidad de Pamplona\Optimización de Procesos\Programas GAMS\225a\"
    SysDir C:\GAMS\34\
    WorkDir "D:\OneDrive - Universidad de Pamplona\Optimización de Procesos\Programas GAMS\"
    LogOption 3
    DFormat 0
    TFormat 0
    ErrorLog 99
    IDE 1
Licensee: GAMS Demo license for Andres Sierra            G210406|0002CO-GEN
          Universidad de Pamplona, Colombia                        DL037498
          C:\GAMS\34\gamslice.txt
          andrew.lol.serra@gmail.com, Andres Sierra                        
          Demo license for demonstration and instructional purposes only
GAMS 34.3.0   Copyright (C) 1987-2021 GAMS Development. All rights reserved
--- Starting compilation
--- Untitled_2.gms(50) 3 Mb
--- Starting execution: elapsed 0:00:00.087
--- Generating LP model PETROLEO
--- Untitled_2.gms(49) 4 Mb
---   8 rows  11 columns  31 non-zeroes
--- Executing CPLEX (Solvelink=2): elapsed 0:00:00.136

IBM ILOG CPLEX   34.3.0 rac355f3 Released Feb 25, 2021 WEI x86 64bit/MS Window

--- *** This solver runs with a demo license. No commercial use.
--- GMO memory 0.50 Mb (peak 0.50 Mb)
--- Dictionary memory 0.00 Mb
--- Cplex 20.1.0.0 link memory 0.00 Mb (peak 0.00 Mb)
--- Starting Cplex

Version identifier: 20.1.0.0 | 2020-11-10 | 9bedb6d68
CPXPARAM_Advance                                 0
CPXPARAM_Simplex_Display                         2
CPXPARAM_Threads                                 1
CPXPARAM_MIP_Display                             4
CPXPARAM_MIP_Tolerances_AbsMIPGap                0
Tried aggregator 1 time.
LP Presolve eliminated 0 rows and 1 columns.
Reduced LP has 7 rows, 10 columns, and 20 nonzeros.
Presolve time = 0.03 sec. (0.01 ticks)

Iteration      Dual Objective            In Variable           Out Variable
     1           30000.000000    Y(TARRAGONA,MADRID)  DEMANDA(MADRID) slack
     2           48000.000000 Y(TARRAGONA,BARCELONA)DEMANDA(BARCELONA slack
     3           61750.000000  Y(TARRAGONA,VALENCIA)DEMANDA(VALENCIA) slack
     4           71750.000000  Y(TARRAGONA,ZARAGOSA)DEMANDA(ZARAGOSA) slack
     5           73750.000000  Y(CARTAGENA,VALENCIA)OFERTA(TARRAGONA) slack
     6           81250.000000  Y(CARTAGENA,ALICANTE)DEMANDA(ALICANTE) slack
     7           82000.000000    Y(CARTAGENA,MADRID)  Y(TARRAGONA,VALENCIA)

--- LP status (1): optimal.
--- Cplex Time: 0.05sec (det. 0.02 ticks)


Optimal solution found
Objective:        82000.000000

--- Reading solution for model PETROLEO
*** Status: Normal completion
--- Job Untitled_2.gms Stop 04/27/21 19:35:17 elapsed 0:00:00.397
